c Reduced graph for r24 generated by Cyril Grelier
p edge 269 3284
e 1 7
e 1 13
e 1 16
e 1 24
e 1 47
e 1 56
e 1 58
e 1 59
e 1 69
e 1 78
e 1 90
e 1 105
e 1 111
e 1 118
e 1 134
e 1 137
e 1 151
e 1 160
e 1 176
e 1 193
e 1 196
e 1 200
e 1 204
e 1 218
e 1 226
e 1 227
e 1 240
e 1 258
e 2 5
e 2 21
e 2 39
e 2 45
e 2 64
e 2 75
e 2 85
e 2 87
e 2 94
e 2 109
e 2 114
e 2 135
e 2 140
e 2 144
e 2 152
e 2 158
e 2 179
e 2 195
e 2 221
e 2 227
e 2 229
e 2 230
e 2 248
e 2 264
e 3 13
e 3 17
e 3 27
e 3 46
e 3 67
e 3 89
e 3 90
e 3 91
e 3 93
e 3 103
e 3 106
e 3 130
e 3 136
e 3 145
e 3 172
e 3 173
e 3 183
e 3 195
e 3 203
e 3 205
e 3 211
e 3 220
e 3 229
e 3 232
e 3 254
e 4 6
e 4 7
e 4 22
e 4 27
e 4 32
e 4 34
e 4 38
e 4 45
e 4 49
e 4 52
e 4 60
e 4 64
e 4 69
e 4 106
e 4 108
e 4 126
e 4 141
e 4 147
e 4 163
e 4 177
e 4 181
e 4 201
e 4 210
e 4 233
e 4 247
e 4 268
e 5 21
e 5 35
e 5 39
e 5 41
e 5 50
e 5 59
e 5 64
e 5 75
e 5 88
e 5 89
e 5 94
e 5 95
e 5 120
e 5 122
e 5 125
e 5 140
e 5 142
e 5 170
e 5 175
e 5 195
e 5 221
e 5 230
e 5 241
e 5 248
e 5 256
e 5 264
e 5 265
e 6 19
e 6 24
e 6 27
e 6 32
e 6 45
e 6 52
e 6 67
e 6 69
e 6 72
e 6 75
e 6 77
e 6 81
e 6 124
e 6 126
e 6 141
e 6 163
e 6 181
e 6 182
e 6 186
e 6 190
e 6 268
e 7 13
e 7 22
e 7 24
e 7 34
e 7 38
e 7 47
e 7 49
e 7 59
e 7 60
e 7 64
e 7 105
e 7 106
e 7 108
e 7 111
e 7 118
e 7 147
e 7 160
e 7 177
e 7 193
e 7 196
e 7 201
e 7 204
e 7 210
e 7 218
e 7 226
e 7 227
e 7 233
e 7 247
e 8 16
e 8 18
e 8 29
e 8 36
e 8 46
e 8 86
e 8 95
e 8 119
e 8 126
e 8 130
e 8 138
e 8 143
e 8 144
e 8 149
e 8 159
e 8 186
e 8 196
e 8 207
e 8 210
e 8 244
e 8 246
e 8 248
e 8 250
e 8 251
e 8 253
e 8 257
e 8 266
e 9 22
e 9 26
e 9 36
e 9 52
e 9 57
e 9 87
e 9 131
e 9 143
e 9 155
e 9 161
e 9 164
e 9 167
e 9 187
e 9 189
e 9 208
e 9 228
e 9 234
e 9 243
e 9 264
e 10 15
e 10 18
e 10 35
e 10 43
e 10 44
e 10 53
e 10 54
e 10 56
e 10 65
e 10 71
e 10 94
e 10 105
e 10 107
e 10 112
e 10 153
e 10 179
e 10 185
e 10 191
e 10 223
e 10 224
e 10 232
e 10 250
e 10 252
e 10 259
e 10 260
e 11 25
e 11 26
e 11 43
e 11 48
e 11 54
e 11 74
e 11 80
e 11 81
e 11 110
e 11 132
e 11 148
e 11 156
e 11 161
e 11 162
e 11 178
e 11 203
e 11 206
e 11 212
e 11 216
e 11 226
e 11 240
e 11 246
e 11 247
e 11 263
e 11 265
e 11 269
e 12 23
e 12 32
e 12 48
e 12 55
e 12 61
e 12 70
e 12 86
e 12 115
e 12 120
e 12 123
e 12 136
e 12 140
e 12 160
e 12 172
e 12 174
e 12 180
e 12 200
e 12 202
e 12 215
e 12 219
e 12 228
e 12 249
e 13 17
e 13 24
e 13 27
e 13 46
e 13 47
e 13 59
e 13 93
e 13 105
e 13 111
e 13 118
e 13 145
e 13 160
e 13 172
e 13 193
e 13 195
e 13 196
e 13 204
e 13 205
e 13 218
e 13 226
e 13 227
e 13 254
e 14 15
e 14 30
e 14 37
e 14 73
e 14 84
e 14 97
e 14 98
e 14 100
e 14 109
e 14 111
e 14 123
e 14 125
e 14 138
e 14 146
e 14 150
e 14 155
e 14 174
e 14 182
e 14 183
e 14 199
e 14 217
e 14 235
e 14 251
e 14 258
e 15 18
e 15 30
e 15 35
e 15 43
e 15 56
e 15 84
e 15 97
e 15 98
e 15 100
e 15 107
e 15 111
e 15 146
e 15 150
e 15 153
e 15 155
e 15 174
e 15 179
e 15 183
e 15 217
e 15 251
e 15 252
e 15 259
e 16 29
e 16 36
e 16 46
e 16 56
e 16 58
e 16 69
e 16 78
e 16 86
e 16 90
e 16 95
e 16 119
e 16 134
e 16 137
e 16 144
e 16 151
e 16 176
e 16 186
e 16 200
e 16 207
e 16 210
e 16 240
e 16 246
e 16 250
e 16 251
e 16 258
e 17 27
e 17 34
e 17 46
e 17 77
e 17 88
e 17 93
e 17 135
e 17 145
e 17 146
e 17 154
e 17 165
e 17 166
e 17 172
e 17 178
e 17 187
e 17 195
e 17 205
e 17 224
e 17 237
e 17 254
e 18 35
e 18 43
e 18 56
e 18 107
e 18 126
e 18 130
e 18 138
e 18 143
e 18 149
e 18 153
e 18 159
e 18 179
e 18 196
e 18 244
e 18 248
e 18 252
e 18 253
e 18 257
e 18 259
e 18 266
e 19 24
e 19 55
e 19 67
e 19 72
e 19 75
e 19 77
e 19 81
e 19 101
e 19 108
e 19 124
e 19 152
e 19 176
e 19 182
e 19 185
e 19 186
e 19 190
e 19 197
e 19 214
e 19 216
e 19 254
e 19 256
e 20 21
e 20 37
e 20 40
e 20 57
e 20 60
e 20 61
e 20 83
e 20 110
e 20 114
e 20 119
e 20 128
e 20 150
e 20 154
e 20 164
e 20 169
e 20 171
e 20 173
e 20 184
e 20 192
e 20 204
e 20 213
e 20 255
e 20 267
e 21 37
e 21 39
e 21 40
e 21 57
e 21 64
e 21 75
e 21 83
e 21 94
e 21 110
e 21 119
e 21 140
e 21 154
e 21 171
e 21 173
e 21 184
e 21 195
e 21 204
e 21 213
e 21 221
e 21 230
e 21 248
e 21 264
e 22 34
e 22 38
e 22 49
e 22 57
e 22 60
e 22 64
e 22 87
e 22 106
e 22 108
e 22 131
e 22 143
e 22 147
e 22 155
e 22 161
e 22 177
e 22 201
e 22 210
e 22 233
e 22 243
e 22 247
e 23 32
e 23 48
e 23 49
e 23 51
e 23 55
e 23 61
e 23 65
e 23 70
e 23 84
e 23 86
e 23 96
e 23 123
e 23 136
e 23 137
e 23 140
e 23 142
e 23 145
e 23 160
e 23 162
e 23 168
e 23 184
e 23 208
e 23 219
e 23 249
e 23 261
e 23 266
e 24 47
e 24 59
e 24 67
e 24 72
e 24 75
e 24 77
e 24 81
e 24 105
e 24 111
e 24 118
e 24 124
e 24 160
e 24 182
e 24 186
e 24 190
e 24 193
e 24 196
e 24 204
e 24 218
e 24 226
e 24 227
e 25 26
e 25 29
e 25 31
e 25 48
e 25 54
e 25 63
e 25 74
e 25 80
e 25 81
e 25 104
e 25 110
e 25 128
e 25 132
e 25 188
e 25 206
e 25 220
e 25 237
e 25 240
e 25 247
e 25 265
e 25 268
e 26 36
e 26 48
e 26 52
e 26 54
e 26 74
e 26 80
e 26 81
e 26 110
e 26 132
e 26 164
e 26 167
e 26 187
e 26 189
e 26 206
e 26 208
e 26 228
e 26 234
e 26 240
e 26 247
e 26 264
e 26 265
e 27 32
e 27 45
e 27 46
e 27 52
e 27 69
e 27 93
e 27 126
e 27 141
e 27 145
e 27 163
e 27 172
e 27 181
e 27 195
e 27 205
e 27 254
e 27 268
e 28 33
e 28 79
e 28 83
e 28 96
e 28 99
e 28 102
e 28 104
e 28 107
e 28 113
e 28 141
e 28 157
e 28 175
e 28 209
e 28 215
e 28 223
e 28 235
e 28 236
e 28 242
e 28 255
e 28 257
e 29 31
e 29 36
e 29 46
e 29 63
e 29 86
e 29 95
e 29 104
e 29 119
e 29 128
e 29 144
e 29 186
e 29 188
e 29 207
e 29 210
e 29 220
e 29 237
e 29 246
e 29 250
e 29 251
e 29 268
e 30 31
e 30 38
e 30 53
e 30 68
e 30 72
e 30 78
e 30 84
e 30 92
e 30 93
e 30 97
e 30 98
e 30 100
e 30 111
e 30 113
e 30 117
e 30 139
e 30 146
e 30 148
e 30 150
e 30 155
e 30 167
e 30 174
e 30 183
e 30 194
e 30 217
e 30 222
e 30 251
e 31 38
e 31 53
e 31 63
e 31 68
e 31 72
e 31 78
e 31 92
e 31 93
e 31 104
e 31 113
e 31 117
e 31 128
e 31 139
e 31 148
e 31 167
e 31 188
e 31 194
e 31 220
e 31 222
e 31 237
e 31 268
e 32 45
e 32 48
e 32 52
e 32 55
e 32 61
e 32 69
e 32 70
e 32 86
e 32 123
e 32 126
e 32 136
e 32 140
e 32 141
e 32 160
e 32 163
e 32 181
e 32 219
e 32 249
e 32 268
e 33 42
e 33 73
e 33 79
e 33 83
e 33 102
e 33 104
e 33 116
e 33 153
e 33 169
e 33 175
e 33 194
e 33 202
e 33 206
e 33 211
e 33 223
e 33 231
e 33 257
e 33 261
e 34 38
e 34 49
e 34 60
e 34 64
e 34 77
e 34 88
e 34 106
e 34 108
e 34 135
e 34 146
e 34 147
e 34 154
e 34 165
e 34 166
e 34 177
e 34 178
e 34 187
e 34 201
e 34 210
e 34 224
e 34 233
e 34 237
e 34 247
e 35 41
e 35 43
e 35 50
e 35 56
e 35 59
e 35 88
e 35 89
e 35 95
e 35 107
e 35 120
e 35 122
e 35 125
e 35 142
e 35 153
e 35 170
e 35 175
e 35 179
e 35 241
e 35 252
e 35 256
e 35 259
e 35 265
e 36 46
e 36 52
e 36 86
e 36 95
e 36 119
e 36 144
e 36 164
e 36 167
e 36 186
e 36 187
e 36 189
e 36 207
e 36 208
e 36 210
e 36 228
e 36 234
e 36 246
e 36 250
e 36 251
e 36 264
e 37 40
e 37 57
e 37 73
e 37 83
e 37 109
e 37 110
e 37 119
e 37 123
e 37 125
e 37 138
e 37 154
e 37 171
e 37 173
e 37 182
e 37 184
e 37 199
e 37 204
e 37 213
e 37 235
e 37 258
e 38 49
e 38 53
e 38 60
e 38 64
e 38 68
e 38 72
e 38 78
e 38 92
e 38 93
e 38 106
e 38 108
e 38 113
e 38 117
e 38 139
e 38 147
e 38 148
e 38 167
e 38 177
e 38 194
e 38 201
e 38 210
e 38 222
e 38 233
e 38 247
e 39 51
e 39 62
e 39 64
e 39 75
e 39 79
e 39 94
e 39 131
e 39 140
e 39 166
e 39 181
e 39 193
e 39 195
e 39 197
e 39 199
e 39 207
e 39 221
e 39 222
e 39 230
e 39 248
e 39 264
e 40 41
e 40 42
e 40 57
e 40 58
e 40 76
e 40 83
e 40 97
e 40 110
e 40 119
e 40 147
e 40 154
e 40 171
e 40 173
e 40 184
e 40 189
e 40 191
e 40 204
e 40 212
e 40 213
e 40 238
e 40 242
e 40 244
e 40 249
e 41 42
e 41 50
e 41 58
e 41 59
e 41 76
e 41 88
e 41 89
e 41 95
e 41 97
e 41 120
e 41 122
e 41 125
e 41 142
e 41 147
e 41 170
e 41 175
e 41 189
e 41 191
e 41 212
e 41 238
e 41 241
e 41 242
e 41 244
e 41 249
e 41 256
e 41 265
e 42 58
e 42 73
e 42 76
e 42 97
e 42 116
e 42 147
e 42 153
e 42 169
e 42 189
e 42 191
e 42 194
e 42 202
e 42 206
e 42 211
e 42 212
e 42 231
e 42 238
e 42 242
e 42 244
e 42 249
e 42 261
e 43 56
e 43 107
e 43 148
e 43 153
e 43 156
e 43 161
e 43 162
e 43 178
e 43 179
e 43 203
e 43 212
e 43 216
e 43 226
e 43 246
e 43 252
e 43 259
e 43 263
e 43 269
e 44 53
e 44 54
e 44 65
e 44 71
e 44 94
e 44 105
e 44 112
e 44 116
e 44 127
e 44 134
e 44 170
e 44 185
e 44 188
e 44 191
e 44 198
e 44 209
e 44 217
e 44 223
e 44 224
e 44 232
e 44 233
e 44 234
e 44 250
e 44 260
e 45 52
e 45 69
e 45 85
e 45 87
e 45 109
e 45 114
e 45 126
e 45 135
e 45 141
e 45 144
e 45 152
e 45 158
e 45 163
e 45 179
e 45 181
e 45 227
e 45 229
e 45 268
e 46 86
e 46 93
e 46 95
e 46 119
e 46 144
e 46 145
e 46 172
e 46 186
e 46 195
e 46 205
e 46 207
e 46 210
e 46 246
e 46 250
e 46 251
e 46 254
e 47 59
e 47 66
e 47 74
e 47 82
e 47 92
e 47 101
e 47 105
e 47 111
e 47 118
e 47 127
e 47 160
e 47 192
e 47 193
e 47 196
e 47 204
e 47 218
e 47 226
e 47 227
e 47 243
e 48 54
e 48 55
e 48 61
e 48 70
e 48 74
e 48 80
e 48 81
e 48 86
e 48 110
e 48 123
e 48 132
e 48 136
e 48 140
e 48 160
e 48 206
e 48 219
e 48 240
e 48 247
e 48 249
e 48 265
e 49 51
e 49 60
e 49 64
e 49 65
e 49 84
e 49 96
e 49 106
e 49 108
e 49 137
e 49 142
e 49 145
e 49 147
e 49 162
e 49 168
e 49 177
e 49 184
e 49 201
e 49 208
e 49 210
e 49 233
e 49 247
e 49 261
e 49 266
e 50 59
e 50 63
e 50 66
e 50 70
e 50 85
e 50 88
e 50 89
e 50 95
e 50 99
e 50 120
e 50 122
e 50 125
e 50 133
e 50 142
e 50 151
e 50 156
e 50 170
e 50 171
e 50 175
e 50 190
e 50 231
e 50 239
e 50 241
e 50 253
e 50 256
e 50 260
e 50 265
e 51 62
e 51 65
e 51 79
e 51 84
e 51 96
e 51 131
e 51 137
e 51 142
e 51 145
e 51 162
e 51 166
e 51 168
e 51 181
e 51 184
e 51 193
e 51 197
e 51 199
e 51 207
e 51 208
e 51 222
e 51 261
e 51 266
e 52 69
e 52 126
e 52 141
e 52 163
e 52 164
e 52 167
e 52 181
e 52 187
e 52 189
e 52 208
e 52 228
e 52 234
e 52 264
e 52 268
e 53 54
e 53 65
e 53 68
e 53 71
e 53 72
e 53 78
e 53 92
e 53 93
e 53 94
e 53 105
e 53 112
e 53 113
e 53 117
e 53 139
e 53 148
e 53 167
e 53 185
e 53 191
e 53 194
e 53 222
e 53 223
e 53 224
e 53 232
e 53 250
e 53 260
e 54 65
e 54 71
e 54 74
e 54 80
e 54 81
e 54 94
e 54 105
e 54 110
e 54 112
e 54 132
e 54 185
e 54 191
e 54 206
e 54 223
e 54 224
e 54 232
e 54 240
e 54 247
e 54 250
e 54 260
e 54 265
e 55 61
e 55 70
e 55 86
e 55 101
e 55 108
e 55 123
e 55 136
e 55 140
e 55 152
e 55 160
e 55 176
e 55 185
e 55 197
e 55 214
e 55 216
e 55 219
e 55 249
e 55 254
e 55 256
e 56 58
e 56 69
e 56 78
e 56 90
e 56 107
e 56 134
e 56 137
e 56 151
e 56 153
e 56 176
e 56 179
e 56 200
e 56 240
e 56 252
e 56 258
e 56 259
e 57 83
e 57 87
e 57 110
e 57 119
e 57 131
e 57 143
e 57 154
e 57 155
e 57 161
e 57 171
e 57 173
e 57 184
e 57 204
e 57 213
e 57 243
e 58 69
e 58 76
e 58 78
e 58 90
e 58 97
e 58 134
e 58 137
e 58 147
e 58 151
e 58 176
e 58 189
e 58 191
e 58 200
e 58 212
e 58 238
e 58 240
e 58 242
e 58 244
e 58 249
e 58 258
e 59 88
e 59 89
e 59 95
e 59 105
e 59 111
e 59 118
e 59 120
e 59 122
e 59 125
e 59 142
e 59 160
e 59 170
e 59 175
e 59 193
e 59 196
e 59 204
e 59 218
e 59 226
e 59 227
e 59 241
e 59 256
e 59 265
e 60 61
e 60 64
e 60 106
e 60 108
e 60 114
e 60 128
e 60 147
e 60 150
e 60 164
e 60 169
e 60 177
e 60 192
e 60 201
e 60 210
e 60 233
e 60 247
e 60 255
e 60 267
e 61 70
e 61 86
e 61 114
e 61 123
e 61 128
e 61 136
e 61 140
e 61 150
e 61 160
e 61 164
e 61 169
e 61 192
e 61 219
e 61 249
e 61 255
e 61 267
e 62 71
e 62 79
e 62 98
e 62 124
e 62 129
e 62 131
e 62 159
e 62 166
e 62 177
e 62 181
e 62 193
e 62 197
e 62 199
e 62 207
e 62 222
e 62 225
e 62 236
e 62 241
e 62 245
e 62 263
e 63 66
e 63 70
e 63 85
e 63 99
e 63 104
e 63 128
e 63 133
e 63 151
e 63 156
e 63 171
e 63 188
e 63 190
e 63 220
e 63 231
e 63 237
e 63 239
e 63 253
e 63 260
e 63 268
e 64 75
e 64 94
e 64 106
e 64 108
e 64 140
e 64 147
e 64 177
e 64 195
e 64 201
e 64 210
e 64 221
e 64 230
e 64 233
e 64 247
e 64 248
e 64 264
e 65 71
e 65 84
e 65 94
e 65 96
e 65 105
e 65 112
e 65 137
e 65 142
e 65 145
e 65 162
e 65 168
e 65 184
e 65 185
e 65 191
e 65 208
e 65 223
e 65 224
e 65 232
e 65 250
e 65 260
e 65 261
e 65 266
e 66 70
e 66 74
e 66 82
e 66 85
e 66 92
e 66 99
e 66 101
e 66 127
e 66 133
e 66 151
e 66 156
e 66 171
e 66 190
e 66 192
e 66 231
e 66 239
e 66 243
e 66 253
e 66 260
e 67 72
e 67 75
e 67 77
e 67 81
e 67 89
e 67 90
e 67 91
e 67 103
e 67 106
e 67 124
e 67 130
e 67 136
e 67 173
e 67 182
e 67 183
e 67 186
e 67 190
e 67 203
e 67 211
e 67 220
e 67 229
e 67 232
e 68 72
e 68 78
e 68 92
e 68 93
e 68 102
e 68 103
e 68 113
e 68 117
e 68 118
e 68 139
e 68 148
e 68 167
e 68 180
e 68 194
e 68 222
e 68 245
e 68 259
e 69 78
e 69 90
e 69 126
e 69 134
e 69 137
e 69 141
e 69 151
e 69 163
e 69 176
e 69 181
e 69 200
e 69 240
e 69 258
e 69 268
e 70 85
e 70 86
e 70 99
e 70 123
e 70 133
e 70 136
e 70 140
e 70 151
e 70 156
e 70 160
e 70 171
e 70 190
e 70 219
e 70 231
e 70 239
e 70 249
e 70 253
e 70 260
e 71 94
e 71 98
e 71 105
e 71 112
e 71 124
e 71 129
e 71 159
e 71 177
e 71 185
e 71 191
e 71 223
e 71 224
e 71 225
e 71 232
e 71 236
e 71 241
e 71 245
e 71 250
e 71 260
e 71 263
e 72 75
e 72 77
e 72 78
e 72 81
e 72 92
e 72 93
e 72 113
e 72 117
e 72 124
e 72 139
e 72 148
e 72 167
e 72 182
e 72 186
e 72 190
e 72 194
e 72 222
e 73 109
e 73 116
e 73 123
e 73 125
e 73 138
e 73 153
e 73 169
e 73 182
e 73 194
e 73 199
e 73 202
e 73 206
e 73 211
e 73 231
e 73 235
e 73 258
e 73 261
e 74 80
e 74 81
e 74 82
e 74 92
e 74 101
e 74 110
e 74 127
e 74 132
e 74 192
e 74 206
e 74 240
e 74 243
e 74 247
e 74 265
e 75 77
e 75 81
e 75 94
e 75 124
e 75 140
e 75 182
e 75 186
e 75 190
e 75 195
e 75 221
e 75 230
e 75 248
e 75 264
e 76 80
e 76 91
e 76 97
e 76 117
e 76 129
e 76 133
e 76 147
e 76 163
e 76 168
e 76 189
e 76 191
e 76 212
e 76 218
e 76 221
e 76 238
e 76 242
e 76 244
e 76 249
e 76 262
e 76 267
e 77 81
e 77 88
e 77 124
e 77 135
e 77 146
e 77 154
e 77 165
e 77 166
e 77 178
e 77 182
e 77 186
e 77 187
e 77 190
e 77 224
e 77 237
e 78 90
e 78 92
e 78 93
e 78 113
e 78 117
e 78 134
e 78 137
e 78 139
e 78 148
e 78 151
e 78 167
e 78 176
e 78 194
e 78 200
e 78 222
e 78 240
e 78 258
e 79 83
e 79 102
e 79 104
e 79 131
e 79 166
e 79 175
e 79 181
e 79 193
e 79 197
e 79 199
e 79 207
e 79 222
e 79 223
e 79 257
e 80 81
e 80 91
e 80 110
e 80 117
e 80 129
e 80 132
e 80 133
e 80 163
e 80 168
e 80 206
e 80 218
e 80 221
e 80 240
e 80 247
e 80 262
e 80 265
e 80 267
e 81 110
e 81 124
e 81 132
e 81 182
e 81 186
e 81 190
e 81 206
e 81 240
e 81 247
e 81 265
e 82 92
e 82 100
e 82 101
e 82 112
e 82 121
e 82 122
e 82 127
e 82 149
e 82 157
e 82 158
e 82 192
e 82 201
e 82 205
e 82 213
e 82 219
e 82 243
e 82 262
e 82 269
e 83 102
e 83 104
e 83 110
e 83 119
e 83 154
e 83 171
e 83 173
e 83 175
e 83 184
e 83 204
e 83 213
e 83 223
e 83 257
e 84 96
e 84 97
e 84 98
e 84 100
e 84 111
e 84 137
e 84 142
e 84 145
e 84 146
e 84 150
e 84 155
e 84 162
e 84 168
e 84 174
e 84 183
e 84 184
e 84 208
e 84 217
e 84 251
e 84 261
e 84 266
e 85 87
e 85 99
e 85 109
e 85 114
e 85 133
e 85 135
e 85 144
e 85 151
e 85 152
e 85 156
e 85 158
e 85 171
e 85 179
e 85 190
e 85 227
e 85 229
e 85 231
e 85 239
e 85 253
e 85 260
e 86 95
e 86 119
e 86 123
e 86 136
e 86 140
e 86 144
e 86 160
e 86 186
e 86 207
e 86 210
e 86 219
e 86 246
e 86 249
e 86 250
e 86 251
e 87 109
e 87 114
e 87 131
e 87 135
e 87 143
e 87 144
e 87 152
e 87 155
e 87 158
e 87 161
e 87 179
e 87 227
e 87 229
e 87 243
e 88 89
e 88 95
e 88 120
e 88 122
e 88 125
e 88 135
e 88 142
e 88 146
e 88 154
e 88 165
e 88 166
e 88 170
e 88 175
e 88 178
e 88 187
e 88 224
e 88 237
e 88 241
e 88 256
e 88 265
e 89 90
e 89 91
e 89 95
e 89 103
e 89 106
e 89 120
e 89 122
e 89 125
e 89 130
e 89 136
e 89 142
e 89 170
e 89 173
e 89 175
e 89 183
e 89 203
e 89 211
e 89 220
e 89 229
e 89 232
e 89 241
e 89 256
e 89 265
e 90 91
e 90 103
e 90 106
e 90 130
e 90 134
e 90 136
e 90 137
e 90 151
e 90 173
e 90 176
e 90 183
e 90 200
e 90 203
e 90 211
e 90 220
e 90 229
e 90 232
e 90 240
e 90 258
e 91 103
e 91 106
e 91 117
e 91 129
e 91 130
e 91 133
e 91 136
e 91 163
e 91 168
e 91 173
e 91 183
e 91 203
e 91 211
e 91 218
e 91 220
e 91 221
e 91 229
e 91 232
e 91 262
e 91 267
e 92 93
e 92 101
e 92 113
e 92 117
e 92 127
e 92 139
e 92 148
e 92 167
e 92 192
e 92 194
e 92 222
e 92 243
e 93 113
e 93 117
e 93 139
e 93 145
e 93 148
e 93 167
e 93 172
e 93 194
e 93 195
e 93 205
e 93 222
e 93 254
e 94 105
e 94 112
e 94 140
e 94 185
e 94 191
e 94 195
e 94 221
e 94 223
e 94 224
e 94 230
e 94 232
e 94 248
e 94 250
e 94 260
e 94 264
e 95 119
e 95 120
e 95 122
e 95 125
e 95 142
e 95 144
e 95 170
e 95 175
e 95 186
e 95 207
e 95 210
e 95 241
e 95 246
e 95 250
e 95 251
e 95 256
e 95 265
e 96 99
e 96 107
e 96 113
e 96 137
e 96 141
e 96 142
e 96 145
e 96 157
e 96 162
e 96 168
e 96 184
e 96 208
e 96 209
e 96 215
e 96 235
e 96 236
e 96 242
e 96 255
e 96 261
e 96 266
e 97 98
e 97 100
e 97 111
e 97 146
e 97 147
e 97 150
e 97 155
e 97 174
e 97 183
e 97 189
e 97 191
e 97 212
e 97 217
e 97 238
e 97 242
e 97 244
e 97 249
e 97 251
e 98 100
e 98 111
e 98 124
e 98 129
e 98 146
e 98 150
e 98 155
e 98 159
e 98 174
e 98 177
e 98 183
e 98 217
e 98 225
e 98 236
e 98 241
e 98 245
e 98 251
e 98 263
e 99 107
e 99 113
e 99 133
e 99 141
e 99 151
e 99 156
e 99 157
e 99 171
e 99 190
e 99 209
e 99 215
e 99 231
e 99 235
e 99 236
e 99 239
e 99 242
e 99 253
e 99 255
e 99 260
e 100 111
e 100 112
e 100 121
e 100 122
e 100 146
e 100 149
e 100 150
e 100 155
e 100 157
e 100 158
e 100 174
e 100 183
e 100 201
e 100 205
e 100 213
e 100 217
e 100 219
e 100 251
e 100 262
e 100 269
e 101 108
e 101 127
e 101 152
e 101 176
e 101 185
e 101 192
e 101 197
e 101 214
e 101 216
e 101 243
e 101 254
e 101 256
e 102 103
e 102 104
e 102 118
e 102 175
e 102 180
e 102 223
e 102 245
e 102 257
e 102 259
e 103 106
e 103 118
e 103 130
e 103 136
e 103 173
e 103 180
e 103 183
e 103 203
e 103 211
e 103 220
e 103 229
e 103 232
e 103 245
e 103 259
e 104 128
e 104 175
e 104 188
e 104 220
e 104 223
e 104 237
e 104 257
e 104 268
e 105 111
e 105 112
e 105 118
e 105 160
e 105 185
e 105 191
e 105 193
e 105 196
e 105 204
e 105 218
e 105 223
e 105 224
e 105 226
e 105 227
e 105 232
e 105 250
e 105 260
e 106 108
e 106 130
e 106 136
e 106 147
e 106 173
e 106 177
e 106 183
e 106 201
e 106 203
e 106 210
e 106 211
e 106 220
e 106 229
e 106 232
e 106 233
e 106 247
e 107 113
e 107 141
e 107 153
e 107 157
e 107 179
e 107 209
e 107 215
e 107 235
e 107 236
e 107 242
e 107 252
e 107 255
e 107 259
e 108 147
e 108 152
e 108 176
e 108 177
e 108 185
e 108 197
e 108 201
e 108 210
e 108 214
e 108 216
e 108 233
e 108 247
e 108 254
e 108 256
e 109 114
e 109 123
e 109 125
e 109 135
e 109 138
e 109 144
e 109 152
e 109 158
e 109 179
e 109 182
e 109 199
e 109 227
e 109 229
e 109 235
e 109 258
e 110 119
e 110 132
e 110 154
e 110 171
e 110 173
e 110 184
e 110 204
e 110 206
e 110 213
e 110 240
e 110 247
e 110 265
e 111 118
e 111 146
e 111 150
e 111 155
e 111 160
e 111 174
e 111 183
e 111 193
e 111 196
e 111 204
e 111 217
e 111 218
e 111 226
e 111 227
e 111 251
e 112 121
e 112 122
e 112 149
e 112 157
e 112 158
e 112 185
e 112 191
e 112 201
e 112 205
e 112 213
e 112 219
e 112 223
e 112 224
e 112 232
e 112 250
e 112 260
e 112 262
e 112 269
e 113 117
e 113 139
e 113 141
e 113 148
e 113 157
e 113 167
e 113 194
e 113 209
e 113 215
e 113 222
e 113 235
e 113 236
e 113 242
e 113 255
e 114 128
e 114 135
e 114 144
e 114 150
e 114 152
e 114 158
e 114 164
e 114 169
e 114 179
e 114 192
e 114 227
e 114 229
e 114 255
e 114 267
e 115 120
e 115 121
e 115 132
e 115 139
e 115 165
e 115 172
e 115 174
e 115 180
e 115 198
e 115 200
e 115 202
e 115 214
e 115 215
e 115 225
e 115 228
e 115 230
e 115 238
e 115 239
e 115 252
e 116 127
e 116 134
e 116 153
e 116 169
e 116 170
e 116 188
e 116 194
e 116 198
e 116 202
e 116 206
e 116 209
e 116 211
e 116 217
e 116 231
e 116 233
e 116 234
e 116 261
e 117 129
e 117 133
e 117 139
e 117 148
e 117 163
e 117 167
e 117 168
e 117 194
e 117 218
e 117 221
e 117 222
e 117 262
e 117 267
e 118 160
e 118 180
e 118 193
e 118 196
e 118 204
e 118 218
e 118 226
e 118 227
e 118 245
e 118 259
e 119 144
e 119 154
e 119 171
e 119 173
e 119 184
e 119 186
e 119 204
e 119 207
e 119 210
e 119 213
e 119 246
e 119 250
e 119 251
e 120 122
e 120 125
e 120 142
e 120 170
e 120 172
e 120 174
e 120 175
e 120 180
e 120 200
e 120 202
e 120 215
e 120 228
e 120 241
e 120 256
e 120 265
e 121 122
e 121 132
e 121 139
e 121 149
e 121 157
e 121 158
e 121 165
e 121 198
e 121 201
e 121 205
e 121 213
e 121 214
e 121 219
e 121 225
e 121 230
e 121 238
e 121 239
e 121 252
e 121 262
e 121 269
e 122 125
e 122 142
e 122 149
e 122 157
e 122 158
e 122 170
e 122 175
e 122 201
e 122 205
e 122 213
e 122 219
e 122 241
e 122 256
e 122 262
e 122 265
e 122 269
e 123 125
e 123 136
e 123 138
e 123 140
e 123 160
e 123 182
e 123 199
e 123 219
e 123 235
e 123 249
e 123 258
e 124 129
e 124 159
e 124 177
e 124 182
e 124 186
e 124 190
e 124 225
e 124 236
e 124 241
e 124 245
e 124 263
e 125 138
e 125 142
e 125 170
e 125 175
e 125 182
e 125 199
e 125 235
e 125 241
e 125 256
e 125 258
e 125 265
e 126 130
e 126 138
e 126 141
e 126 143
e 126 149
e 126 159
e 126 163
e 126 181
e 126 196
e 126 244
e 126 248
e 126 253
e 126 257
e 126 266
e 126 268
e 127 134
e 127 170
e 127 188
e 127 192
e 127 198
e 127 209
e 127 217
e 127 233
e 127 234
e 127 243
e 128 150
e 128 164
e 128 169
e 128 188
e 128 192
e 128 220
e 128 237
e 128 255
e 128 267
e 128 268
e 129 133
e 129 159
e 129 163
e 129 168
e 129 177
e 129 218
e 129 221
e 129 225
e 129 236
e 129 241
e 129 245
e 129 262
e 129 263
e 129 267
e 130 136
e 130 138
e 130 143
e 130 149
e 130 159
e 130 173
e 130 183
e 130 196
e 130 203
e 130 211
e 130 220
e 130 229
e 130 232
e 130 244
e 130 248
e 130 253
e 130 257
e 130 266
e 131 143
e 131 155
e 131 161
e 131 166
e 131 181
e 131 193
e 131 197
e 131 199
e 131 207
e 131 222
e 131 243
e 132 139
e 132 165
e 132 198
e 132 206
e 132 214
e 132 225
e 132 230
e 132 238
e 132 239
e 132 240
e 132 247
e 132 252
e 132 265
e 133 151
e 133 156
e 133 163
e 133 168
e 133 171
e 133 190
e 133 218
e 133 221
e 133 231
e 133 239
e 133 253
e 133 260
e 133 262
e 133 267
e 134 137
e 134 151
e 134 170
e 134 176
e 134 188
e 134 198
e 134 200
e 134 209
e 134 217
e 134 233
e 134 234
e 134 240
e 134 258
e 135 144
e 135 146
e 135 152
e 135 154
e 135 158
e 135 165
e 135 166
e 135 178
e 135 179
e 135 187
e 135 224
e 135 227
e 135 229
e 135 237
e 136 140
e 136 160
e 136 173
e 136 183
e 136 203
e 136 211
e 136 219
e 136 220
e 136 229
e 136 232
e 136 249
e 137 142
e 137 145
e 137 151
e 137 162
e 137 168
e 137 176
e 137 184
e 137 200
e 137 208
e 137 240
e 137 258
e 137 261
e 137 266
e 138 143
e 138 149
e 138 159
e 138 182
e 138 196
e 138 199
e 138 235
e 138 244
e 138 248
e 138 253
e 138 257
e 138 258
e 138 266
e 139 148
e 139 165
e 139 167
e 139 194
e 139 198
e 139 214
e 139 222
e 139 225
e 139 230
e 139 238
e 139 239
e 139 252
e 140 160
e 140 195
e 140 219
e 140 221
e 140 230
e 140 248
e 140 249
e 140 264
e 141 157
e 141 163
e 141 181
e 141 209
e 141 215
e 141 235
e 141 236
e 141 242
e 141 255
e 141 268
e 142 145
e 142 162
e 142 168
e 142 170
e 142 175
e 142 184
e 142 208
e 142 241
e 142 256
e 142 261
e 142 265
e 142 266
e 143 149
e 143 155
e 143 159
e 143 161
e 143 196
e 143 243
e 143 244
e 143 248
e 143 253
e 143 257
e 143 266
e 144 152
e 144 158
e 144 179
e 144 186
e 144 207
e 144 210
e 144 227
e 144 229
e 144 246
e 144 250
e 144 251
e 145 162
e 145 168
e 145 172
e 145 184
e 145 195
e 145 205
e 145 208
e 145 254
e 145 261
e 145 266
e 146 150
e 146 154
e 146 155
e 146 165
e 146 166
e 146 174
e 146 178
e 146 183
e 146 187
e 146 217
e 146 224
e 146 237
e 146 251
e 147 177
e 147 189
e 147 191
e 147 201
e 147 210
e 147 212
e 147 233
e 147 238
e 147 242
e 147 244
e 147 247
e 147 249
e 148 156
e 148 161
e 148 162
e 148 167
e 148 178
e 148 194
e 148 203
e 148 212
e 148 216
e 148 222
e 148 226
e 148 246
e 148 263
e 148 269
e 149 157
e 149 158
e 149 159
e 149 196
e 149 201
e 149 205
e 149 213
e 149 219
e 149 244
e 149 248
e 149 253
e 149 257
e 149 262
e 149 266
e 149 269
e 150 155
e 150 164
e 150 169
e 150 174
e 150 183
e 150 192
e 150 217
e 150 251
e 150 255
e 150 267
e 151 156
e 151 171
e 151 176
e 151 190
e 151 200
e 151 231
e 151 239
e 151 240
e 151 253
e 151 258
e 151 260
e 152 158
e 152 176
e 152 179
e 152 185
e 152 197
e 152 214
e 152 216
e 152 227
e 152 229
e 152 254
e 152 256
e 153 169
e 153 179
e 153 194
e 153 202
e 153 206
e 153 211
e 153 231
e 153 252
e 153 259
e 153 261
e 154 165
e 154 166
e 154 171
e 154 173
e 154 178
e 154 184
e 154 187
e 154 204
e 154 213
e 154 224
e 154 237
e 155 161
e 155 174
e 155 183
e 155 217
e 155 243
e 155 251
e 156 161
e 156 162
e 156 171
e 156 178
e 156 190
e 156 203
e 156 212
e 156 216
e 156 226
e 156 231
e 156 239
e 156 246
e 156 253
e 156 260
e 156 263
e 156 269
e 157 158
e 157 201
e 157 205
e 157 209
e 157 213
e 157 215
e 157 219
e 157 235
e 157 236
e 157 242
e 157 255
e 157 262
e 157 269
e 158 179
e 158 201
e 158 205
e 158 213
e 158 219
e 158 227
e 158 229
e 158 262
e 158 269
e 159 177
e 159 196
e 159 225
e 159 236
e 159 241
e 159 244
e 159 245
e 159 248
e 159 253
e 159 257
e 159 263
e 159 266
e 160 193
e 160 196
e 160 204
e 160 218
e 160 219
e 160 226
e 160 227
e 160 249
e 161 162
e 161 178
e 161 203
e 161 212
e 161 216
e 161 226
e 161 243
e 161 246
e 161 263
e 161 269
e 162 168
e 162 178
e 162 184
e 162 203
e 162 208
e 162 212
e 162 216
e 162 226
e 162 246
e 162 261
e 162 263
e 162 266
e 162 269
e 163 168
e 163 181
e 163 218
e 163 221
e 163 262
e 163 267
e 163 268
e 164 167
e 164 169
e 164 187
e 164 189
e 164 192
e 164 208
e 164 228
e 164 234
e 164 255
e 164 264
e 164 267
e 165 166
e 165 178
e 165 187
e 165 198
e 165 214
e 165 224
e 165 225
e 165 230
e 165 237
e 165 238
e 165 239
e 165 252
e 166 178
e 166 181
e 166 187
e 166 193
e 166 197
e 166 199
e 166 207
e 166 222
e 166 224
e 166 237
e 167 187
e 167 189
e 167 194
e 167 208
e 167 222
e 167 228
e 167 234
e 167 264
e 168 184
e 168 208
e 168 218
e 168 221
e 168 261
e 168 262
e 168 266
e 168 267
e 169 192
e 169 194
e 169 202
e 169 206
e 169 211
e 169 231
e 169 255
e 169 261
e 169 267
e 170 175
e 170 188
e 170 198
e 170 209
e 170 217
e 170 233
e 170 234
e 170 241
e 170 256
e 170 265
e 171 173
e 171 184
e 171 190
e 171 204
e 171 213
e 171 231
e 171 239
e 171 253
e 171 260
e 172 174
e 172 180
e 172 195
e 172 200
e 172 202
e 172 205
e 172 215
e 172 228
e 172 254
e 173 183
e 173 184
e 173 203
e 173 204
e 173 211
e 173 213
e 173 220
e 173 229
e 173 232
e 174 180
e 174 183
e 174 200
e 174 202
e 174 215
e 174 217
e 174 228
e 174 251
e 175 223
e 175 241
e 175 256
e 175 257
e 175 265
e 176 185
e 176 197
e 176 200
e 176 214
e 176 216
e 176 240
e 176 254
e 176 256
e 176 258
e 177 201
e 177 210
e 177 225
e 177 233
e 177 236
e 177 241
e 177 245
e 177 247
e 177 263
e 178 187
e 178 203
e 178 212
e 178 216
e 178 224
e 178 226
e 178 237
e 178 246
e 178 263
e 178 269
e 179 227
e 179 229
e 179 252
e 179 259
e 180 200
e 180 202
e 180 215
e 180 228
e 180 245
e 180 259
e 181 193
e 181 197
e 181 199
e 181 207
e 181 222
e 181 268
e 182 186
e 182 190
e 182 199
e 182 235
e 182 258
e 183 203
e 183 211
e 183 217
e 183 220
e 183 229
e 183 232
e 183 251
e 184 204
e 184 208
e 184 213
e 184 261
e 184 266
e 185 191
e 185 197
e 185 214
e 185 216
e 185 223
e 185 224
e 185 232
e 185 250
e 185 254
e 185 256
e 185 260
e 186 190
e 186 207
e 186 210
e 186 246
e 186 250
e 186 251
e 187 189
e 187 208
e 187 224
e 187 228
e 187 234
e 187 237
e 187 264
e 188 198
e 188 209
e 188 217
e 188 220
e 188 233
e 188 234
e 188 237
e 188 268
e 189 191
e 189 208
e 189 212
e 189 228
e 189 234
e 189 238
e 189 242
e 189 244
e 189 249
e 189 264
e 190 231
e 190 239
e 190 253
e 190 260
e 191 212
e 191 223
e 191 224
e 191 232
e 191 238
e 191 242
e 191 244
e 191 249
e 191 250
e 191 260
e 192 243
e 192 255
e 192 267
e 193 196
e 193 197
e 193 199
e 193 204
e 193 207
e 193 218
e 193 222
e 193 226
e 193 227
e 194 202
e 194 206
e 194 211
e 194 222
e 194 231
e 194 261
e 195 205
e 195 221
e 195 230
e 195 248
e 195 254
e 195 264
e 196 204
e 196 218
e 196 226
e 196 227
e 196 244
e 196 248
e 196 253
e 196 257
e 196 266
e 197 199
e 197 207
e 197 214
e 197 216
e 197 222
e 197 254
e 197 256
e 198 209
e 198 214
e 198 217
e 198 225
e 198 230
e 198 233
e 198 234
e 198 238
e 198 239
e 198 252
e 199 207
e 199 222
e 199 235
e 199 258
e 200 202
e 200 215
e 200 228
e 200 240
e 200 258
e 201 205
e 201 210
e 201 213
e 201 219
e 201 233
e 201 247
e 201 262
e 201 269
e 202 206
e 202 211
e 202 215
e 202 228
e 202 231
e 202 261
e 203 211
e 203 212
e 203 216
e 203 220
e 203 226
e 203 229
e 203 232
e 203 246
e 203 263
e 203 269
e 204 213
e 204 218
e 204 226
e 204 227
e 205 213
e 205 219
e 205 254
e 205 262
e 205 269
e 206 211
e 206 231
e 206 240
e 206 247
e 206 261
e 206 265
e 207 210
e 207 222
e 207 246
e 207 250
e 207 251
e 208 228
e 208 234
e 208 261
e 208 264
e 208 266
e 209 215
e 209 217
e 209 233
e 209 234
e 209 235
e 209 236
e 209 242
e 209 255
e 210 233
e 210 246
e 210 247
e 210 250
e 210 251
e 211 220
e 211 229
e 211 231
e 211 232
e 211 261
e 212 216
e 212 226
e 212 238
e 212 242
e 212 244
e 212 246
e 212 249
e 212 263
e 212 269
e 213 219
e 213 262
e 213 269
e 214 216
e 214 225
e 214 230
e 214 238
e 214 239
e 214 252
e 214 254
e 214 256
e 215 228
e 215 235
e 215 236
e 215 242
e 215 255
e 216 226
e 216 246
e 216 254
e 216 256
e 216 263
e 216 269
e 217 233
e 217 234
e 217 251
e 218 221
e 218 226
e 218 227
e 218 262
e 218 267
e 219 249
e 219 262
e 219 269
e 220 229
e 220 232
e 220 237
e 220 268
e 221 230
e 221 248
e 221 262
e 221 264
e 221 267
e 223 224
e 223 232
e 223 250
e 223 257
e 223 260
e 224 232
e 224 237
e 224 250
e 224 260
e 225 230
e 225 236
e 225 238
e 225 239
e 225 241
e 225 245
e 225 252
e 225 263
e 226 227
e 226 246
e 226 263
e 226 269
e 227 229
e 228 234
e 228 264
e 229 232
e 230 238
e 230 239
e 230 248
e 230 252
e 230 264
e 231 239
e 231 253
e 231 260
e 231 261
e 232 250
e 232 260
e 233 234
e 233 247
e 234 264
e 235 236
e 235 242
e 235 255
e 235 258
e 236 241
e 236 242
e 236 245
e 236 255
e 236 263
e 237 268
e 238 239
e 238 242
e 238 244
e 238 249
e 238 252
e 239 252
e 239 253
e 239 260
e 240 247
e 240 258
e 240 265
e 241 245
e 241 256
e 241 263
e 241 265
e 242 244
e 242 249
e 242 255
e 244 248
e 244 249
e 244 253
e 244 257
e 244 266
e 245 259
e 245 263
e 246 250
e 246 251
e 246 263
e 246 269
e 247 265
e 248 253
e 248 257
e 248 264
e 248 266
e 250 251
e 250 260
e 252 259
e 253 257
e 253 260
e 253 266
e 254 256
e 255 267
e 256 265
e 257 266
e 261 266
e 262 267
e 262 269
e 263 269
